p cnf 244 2210
e 80 81 82 85 86 87 91 92 93 98 99 100 104 105 106 109 110 111 115 116 117 121 122 123 127 128 129 133 134 135 140 141 142 146 147 148 155 156 157 165 166 167 174 175 176 186 187 188 199 200 201 220 222 224 0
a 237 238 239 240 0
e 1 2 3 4 5 6 7 8 9 10 11 12 13 14 15 16 17 18 19 20 21 22 23 24 25 26 27 28 29 30 31 32 33 34 35 36 37 38 39 40 41 42 43 44 45 46 47 48 49 50 51 52 53 54 55 56 57 58 59 60 61 62 63 64 65 66 67 68 69 70 71 72 73 74 75 76 77 78 79 83 84 88 89 90 94 95 96 97 101 102 103 107 108 112 113 114 118 119 120 124 125 126 130 131 132 136 137 138 139 143 144 145 149 150 151 152 153 154 158 159 160 161 162 163 164 168 169 170 171 172 173 177 178 179 180 181 182 183 184 185 189 190 191 192 193 194 195 196 197 198 202 203 204 205 206 207 208 209 210 211 212 213 214 215 216 217 218 219 221 223 225 226 227 228 229 230 231 232 233 234 235 236 241 242 243 244 0
-240 -239 -237 231 238 0
-240 -239 -237 230 238 0
-240 -239 -237 235 238 0
-240 -239 -237 238 244 0
-239 -237 232 238 240 0
-239 -237 238 240 241 0
-239 -237 235 238 240 0
-239 -237 236 238 240 0
-240 -239 237 238 243 0
-240 -239 237 238 244 0
-240 -239 237 238 241 0
-240 -239 235 237 238 0
-240 -239 236 237 238 0
-239 229 237 238 240 0
-239 231 237 238 240 0
-239 237 238 240 243 0
-239 234 237 238 240 0
-240 -238 -237 239 242 0
-240 -238 -237 232 239 0
-240 -238 -237 233 239 0
-240 -238 -237 234 239 0
-238 -237 230 239 240 0
-238 -237 229 239 240 0
-238 -237 233 239 240 0
-238 -237 236 239 240 0
-240 -238 237 239 243 0
-240 -238 234 237 239 0
-240 -238 229 237 239 0
-240 -238 233 237 239 0
-240 -238 236 237 239 0
-238 237 239 240 242 0
-238 237 239 240 243 0
-238 237 239 240 244 0
-238 233 237 239 240 0
-238 234 237 239 240 0
-240 -237 230 238 239 0
-240 -237 235 238 239 0
-240 -237 238 239 244 0
-240 -237 233 238 239 0
-240 -237 236 238 239 0
-237 231 238 239 240 0
-237 238 239 240 243 0
-237 234 238 239 240 0
-237 235 238 239 240 0
-237 238 239 240 244 0
-240 232 237 238 239 0
-240 233 237 238 239 0
-240 234 237 238 239 0
-240 235 237 238 239 0
-240 236 237 238 239 0
237 238 239 240 243 0
237 238 239 240 244 0
233 237 238 239 240 0
234 237 238 239 240 0
235 237 238 239 240 0
236 237 238 239 240 0
-239 -238 237 240 241 0
-239 -238 237 240 242 0
-239 -238 237 240 243 0
-239 -238 237 240 244 0
-1 231 0
-1 243 0
-243 -231 1 0
-2 230 0
-2 235 0
-235 -230 2 0
-3 241 0
-3 235 0
-241 -235 3 0
-4 232 0
-4 233 0
-233 -232 4 0
-5 229 0
-5 233 0
-233 -229 5 0
-6 242 0
-6 243 0
-243 -242 6 0
-7 162 0
-7 193 0
-193 -162 7 0
-8 171 0
-8 210 0
-210 -171 8 0
-9 181 0
-9 210 0
-210 -181 9 0
-10 194 0
-10 209 0
-209 -194 10 0
-11 212 0
-11 209 0
-212 -209 11 0
-12 151 0
-12 193 0
-193 -151 12 0
-13 164 0
-13 196 0
-196 -164 13 0
-14 173 0
-14 217 0
-217 -173 14 0
-15 184 0
-15 217 0
-217 -184 15 0
-16 197 0
-16 216 0
-216 -197 16 0
-17 219 0
-17 216 0
-219 -216 17 0
-18 153 0
-18 196 0
-196 -153 18 0
-19 177 0
-19 227 0
-227 -177 19 0
-20 190 0
-20 227 0
-227 -190 20 0
-21 203 0
-21 226 0
-226 -203 21 0
-22 158 0
-22 202 0
-202 -158 22 0
-23 24 0
-24 23 0
-77 235 0
-77 243 0
-77 231 0
-78 210 0
-78 193 0
-78 162 0
-79 217 0
-79 196 0
-79 164 0
-83 242 0
-83 233 0
-83 243 0
-84 151 0
-84 209 0
-84 193 0
-88 243 0
-88 241 0
-88 235 0
-89 193 0
-89 181 0
-89 210 0
-90 196 0
-90 184 0
-90 217 0
-94 233 0
-94 230 0
-94 235 0
-95 209 0
-95 171 0
-95 210 0
-96 216 0
-96 173 0
-96 217 0
-97 226 0
-97 177 0
-97 227 0
-101 233 0
-101 229 0
-101 243 0
-102 209 0
-102 212 0
-102 193 0
-103 216 0
-103 219 0
-103 196 0
-107 233 0
-107 232 0
-107 235 0
-108 209 0
-108 194 0
-108 210 0
-112 242 0
-112 243 0
-113 151 0
-113 193 0
-114 153 0
-114 196 0
-118 243 0
-118 231 0
-119 193 0
-119 162 0
-120 196 0
-120 164 0
-124 230 0
-124 235 0
-125 171 0
-125 210 0
-126 173 0
-126 217 0
-130 241 0
-130 235 0
-131 181 0
-131 210 0
-132 184 0
-132 217 0
-136 232 0
-136 233 0
-137 194 0
-137 209 0
-138 197 0
-138 216 0
-139 203 0
-139 226 0
-143 229 0
-143 233 0
-144 212 0
-144 209 0
-145 219 0
-145 216 0
-149 243 0
-149 236 0
-149 235 0
-150 193 0
-150 161 0
-150 210 0
-152 196 0
-152 163 0
-152 217 0
-154 202 0
-154 168 0
-154 227 0
-159 233 0
-159 236 0
-159 243 0
-160 209 0
-160 161 0
-160 193 0
-169 243 0
-169 234 0
-169 235 0
-170 193 0
-170 180 0
-170 210 0
-172 196 0
-172 183 0
-172 217 0
-178 233 0
-178 234 0
-178 235 0
-179 209 0
-179 180 0
-179 210 0
-182 216 0
-182 183 0
-182 217 0
-185 226 0
-185 189 0
-185 227 0
-191 233 0
-191 244 0
-191 243 0
-192 209 0
-192 211 0
-192 193 0
-195 216 0
-195 218 0
-195 196 0
-198 226 0
-198 228 0
-198 202 0
-204 233 0
-204 244 0
-204 235 0
-205 209 0
-205 211 0
-205 210 0
-77 209 0
-162 -77 0
-210 -77 0
-77 151 0
-78 216 0
-164 -78 0
-217 -78 0
-78 153 0
-79 226 0
-227 -79 0
-79 158 0
-83 210 0
-151 -83 0
-209 -83 0
-83 162 0
-84 217 0
-153 -84 0
-216 -84 0
-84 164 0
-88 171 0
-193 -88 0
-181 -88 0
-88 209 0
-89 173 0
-196 -89 0
-184 -89 0
-89 216 0
-90 177 0
-202 -90 0
-190 -90 0
-90 226 0
-94 181 0
-209 -94 0
-171 -94 0
-94 193 0
-95 184 0
-216 -95 0
-173 -95 0
-95 196 0
-96 190 0
-226 -96 0
-177 -96 0
-96 202 0
-97 24 0
-101 194 0
-193 -101 0
-212 -101 0
-101 210 0
-102 197 0
-196 -102 0
-219 -102 0
-102 217 0
-103 203 0
-202 -103 0
-103 227 0
-107 212 0
-210 -107 0
-194 -107 0
-107 193 0
-108 219 0
-217 -108 0
-197 -108 0
-108 196 0
-112 161 0
-151 -112 0
-112 210 0
-113 163 0
-153 -113 0
-113 217 0
-114 168 0
-158 -114 0
-114 227 0
-118 161 0
-162 -118 0
-118 209 0
-119 163 0
-164 -119 0
-119 216 0
-120 168 0
-120 226 0
-124 180 0
-171 -124 0
-124 193 0
-125 183 0
-173 -125 0
-125 196 0
-126 189 0
-177 -126 0
-126 202 0
-130 180 0
-181 -130 0
-130 209 0
-131 183 0
-184 -131 0
-131 216 0
-132 189 0
-190 -132 0
-132 226 0
-136 211 0
-194 -136 0
-136 193 0
-137 218 0
-197 -137 0
-137 196 0
-138 228 0
-203 -138 0
-138 202 0
-139 26 0
-139 -25 0
-139 24 0
-143 211 0
-212 -143 0
-143 210 0
-144 218 0
-219 -144 0
-144 217 0
-145 228 0
-145 227 0
-210 -149 0
-161 -149 0
-149 151 0
-217 -150 0
-163 -150 0
-150 153 0
-227 -152 0
-168 -152 0
-152 158 0
-209 -159 0
-161 -159 0
-159 162 0
-216 -160 0
-163 -160 0
-160 164 0
-193 -169 0
-180 -169 0
-169 171 0
-196 -170 0
-183 -170 0
-170 173 0
-202 -172 0
-189 -172 0
-172 177 0
-209 -178 0
-180 -178 0
-178 181 0
-216 -179 0
-183 -179 0
-179 184 0
-226 -182 0
-189 -182 0
-182 190 0
-193 -191 0
-211 -191 0
-191 194 0
-196 -192 0
-218 -192 0
-192 197 0
-202 -195 0
-228 -195 0
-195 203 0
-198 -24 0
-198 -26 0
-198 25 0
-210 -204 0
-211 -204 0
-204 212 0
-217 -205 0
-218 -205 0
-205 219 0
-162 83 159 231 0
-164 84 160 162 0
-231 77 118 162 0
-162 78 119 164 0
-164 79 120 0
-210 83 101 112 143 235 0
-217 84 102 113 144 210 0
-227 103 114 145 217 0
-235 77 107 149 204 210 0
-210 78 108 150 205 217 0
-217 79 152 227 0
-227 154 0
-193 94 107 124 136 243 0
-196 95 108 125 137 193 0
-202 96 126 138 196 0
-24 97 139 202 0
-243 88 101 169 191 193 0
-193 89 102 170 192 196 0
-196 90 103 172 195 202 0
-202 24 198 0
-151 77 149 242 0
-153 78 150 151 0
-158 79 152 153 0
154 158 0
-242 83 112 151 0
-151 84 113 153 0
-153 114 158 0
-209 77 88 118 130 233 0
-216 78 89 119 131 209 0
-226 79 90 120 132 216 0
-233 83 94 159 178 209 0
-209 84 95 160 179 216 0
-216 96 182 226 0
-226 97 185 0
-181 94 178 241 0
-184 95 179 181 0
-190 96 182 184 0
97 185 190 0
-241 88 130 181 0
-181 89 131 184 0
-184 90 132 190 0
-171 88 169 230 0
-173 89 170 171 0
-177 90 172 173 0
-230 94 124 171 0
-171 95 125 173 0
-173 96 126 177 0
-177 97 0
-212 107 204 229 0
-219 108 205 212 0
-229 101 143 212 0
-212 102 144 219 0
-219 103 145 0
-194 101 191 232 0
-197 102 192 194 0
-203 103 195 197 0
-25 198 203 0
-232 107 136 194 0
-194 108 137 197 0
-197 138 203 0
-203 25 139 0
-161 112 118 236 0
-163 113 119 161 0
-168 114 120 163 0
-236 149 159 161 0
-161 150 160 163 0
-163 152 168 0
-168 154 0
-180 124 130 234 0
-183 125 131 180 0
-189 126 132 183 0
-234 169 178 180 0
-180 170 179 183 0
-183 172 182 189 0
-189 185 0
-211 136 143 244 0
-218 137 144 211 0
-228 138 145 218 0
-26 139 228 0
-244 191 204 211 0
-211 192 205 218 0
-218 195 228 0
-228 26 198 0
-162 -151 0
-164 -153 0
-209 -162 0
-216 -164 0
-181 -162 0
-184 -164 0
-194 -162 0
-197 -164 0
-162 -161 0
-164 -163 0
-210 -151 0
-217 -153 0
-227 -158 0
-212 -210 0
-219 -217 0
-193 -171 0
-196 -173 0
-202 -177 0
-194 -193 0
-197 -196 0
-203 -202 0
-25 -24 0
-171 -151 0
-173 -153 0
-177 -158 0
-212 -151 0
-219 -153 0
-161 -151 0
-163 -153 0
-168 -158 0
-209 -181 0
-216 -184 0
-226 -190 0
-181 -171 0
-184 -173 0
-190 -177 0
-212 -181 0
-219 -184 0
-181 -180 0
-184 -183 0
-190 -189 0
-194 -171 0
-197 -173 0
-203 -177 0
-180 -171 0
-183 -173 0
-189 -177 0
-212 -194 0
-219 -197 0
-212 -211 0
-219 -218 0
-211 -194 0
-218 -197 0
-228 -203 0
-26 -25 0
-83 -77 0
-84 -78 0
-88 -77 0
-89 -78 0
-90 -79 0
-94 -77 0
-95 -78 0
-96 -79 0
-101 -77 0
-102 -78 0
-103 -79 0
-107 -77 0
-108 -78 0
-112 -77 0
-113 -78 0
-114 -79 0
-118 -77 0
-119 -78 0
-120 -79 0
-124 -77 0
-125 -78 0
-126 -79 0
-130 -77 0
-131 -78 0
-132 -79 0
-136 -77 0
-137 -78 0
-138 -79 0
-143 -77 0
-144 -78 0
-145 -79 0
-149 -77 0
-150 -78 0
-152 -79 0
-159 -77 0
-160 -78 0
-169 -77 0
-170 -78 0
-172 -79 0
-178 -77 0
-179 -78 0
-182 -79 0
-191 -77 0
-192 -78 0
-195 -79 0
-204 -77 0
-205 -78 0
-88 -83 0
-89 -84 0
-94 -83 0
-95 -84 0
-101 -83 0
-102 -84 0
-107 -83 0
-108 -84 0
-112 -83 0
-113 -84 0
-118 -83 0
-119 -84 0
-124 -83 0
-125 -84 0
-130 -83 0
-131 -84 0
-136 -83 0
-137 -84 0
-143 -83 0
-144 -84 0
-149 -83 0
-150 -84 0
-159 -83 0
-160 -84 0
-169 -83 0
-170 -84 0
-178 -83 0
-179 -84 0
-191 -83 0
-192 -84 0
-204 -83 0
-205 -84 0
-94 -88 0
-95 -89 0
-96 -90 0
-101 -88 0
-102 -89 0
-103 -90 0
-107 -88 0
-108 -89 0
-112 -88 0
-113 -89 0
-114 -90 0
-118 -88 0
-119 -89 0
-120 -90 0
-124 -88 0
-125 -89 0
-126 -90 0
-130 -88 0
-131 -89 0
-132 -90 0
-136 -88 0
-137 -89 0
-138 -90 0
-143 -88 0
-144 -89 0
-145 -90 0
-149 -88 0
-150 -89 0
-152 -90 0
-159 -88 0
-160 -89 0
-169 -88 0
-170 -89 0
-172 -90 0
-178 -88 0
-179 -89 0
-182 -90 0
-191 -88 0
-192 -89 0
-195 -90 0
-204 -88 0
-205 -89 0
-101 -94 0
-102 -95 0
-103 -96 0
-107 -94 0
-108 -95 0
-112 -94 0
-113 -95 0
-114 -96 0
-118 -94 0
-119 -95 0
-120 -96 0
-124 -94 0
-125 -95 0
-126 -96 0
-130 -94 0
-131 -95 0
-132 -96 0
-136 -94 0
-137 -95 0
-138 -96 0
-139 -97 0
-143 -94 0
-144 -95 0
-145 -96 0
-149 -94 0
-150 -95 0
-152 -96 0
-154 -97 0
-159 -94 0
-160 -95 0
-169 -94 0
-170 -95 0
-172 -96 0
-178 -94 0
-179 -95 0
-182 -96 0
-185 -97 0
-191 -94 0
-192 -95 0
-195 -96 0
-198 -97 0
-204 -94 0
-205 -95 0
-107 -101 0
-108 -102 0
-112 -101 0
-113 -102 0
-114 -103 0
-118 -101 0
-119 -102 0
-120 -103 0
-124 -101 0
-125 -102 0
-126 -103 0
-130 -101 0
-131 -102 0
-132 -103 0
-136 -101 0
-137 -102 0
-138 -103 0
-143 -101 0
-144 -102 0
-145 -103 0
-149 -101 0
-150 -102 0
-152 -103 0
-159 -101 0
-160 -102 0
-169 -101 0
-170 -102 0
-172 -103 0
-178 -101 0
-179 -102 0
-182 -103 0
-191 -101 0
-192 -102 0
-195 -103 0
-204 -101 0
-205 -102 0
-112 -107 0
-113 -108 0
-118 -107 0
-119 -108 0
-124 -107 0
-125 -108 0
-130 -107 0
-131 -108 0
-136 -107 0
-137 -108 0
-143 -107 0
-144 -108 0
-149 -107 0
-150 -108 0
-159 -107 0
-160 -108 0
-169 -107 0
-170 -108 0
-178 -107 0
-179 -108 0
-191 -107 0
-192 -108 0
-204 -107 0
-205 -108 0
-124 -112 0
-125 -113 0
-126 -114 0
-130 -112 0
-131 -113 0
-132 -114 0
-136 -112 0
-137 -113 0
-138 -114 0
-149 -112 0
-150 -113 0
-152 -114 0
-159 -112 0
-160 -113 0
-169 -112 0
-170 -113 0
-172 -114 0
-178 -112 0
-179 -113 0
-182 -114 0
-191 -112 0
-192 -113 0
-195 -114 0
-204 -112 0
-205 -113 0
-124 -118 0
-125 -119 0
-126 -120 0
-136 -118 0
-137 -119 0
-138 -120 0
-143 -118 0
-144 -119 0
-145 -120 0
-149 -118 0
-150 -119 0
-152 -120 0
-159 -118 0
-160 -119 0
-169 -118 0
-170 -119 0
-172 -120 0
-178 -118 0
-179 -119 0
-182 -120 0
-191 -118 0
-192 -119 0
-195 -120 0
-204 -118 0
-205 -119 0
-143 -124 0
-144 -125 0
-145 -126 0
-149 -124 0
-150 -125 0
-152 -126 0
-159 -124 0
-160 -125 0
-169 -124 0
-170 -125 0
-172 -126 0
-178 -124 0
-179 -125 0
-182 -126 0
-191 -124 0
-192 -125 0
-195 -126 0
-204 -124 0
-205 -125 0
-136 -130 0
-137 -131 0
-138 -132 0
-143 -130 0
-144 -131 0
-145 -132 0
-149 -130 0
-150 -131 0
-152 -132 0
-159 -130 0
-160 -131 0
-169 -130 0
-170 -131 0
-172 -132 0
-178 -130 0
-179 -131 0
-182 -132 0
-191 -130 0
-192 -131 0
-195 -132 0
-204 -130 0
-205 -131 0
-149 -136 0
-150 -137 0
-152 -138 0
-154 -139 0
-159 -136 0
-160 -137 0
-169 -136 0
-170 -137 0
-172 -138 0
-178 -136 0
-179 -137 0
-182 -138 0
-185 -139 0
-191 -136 0
-192 -137 0
-195 -138 0
-198 -139 0
-204 -136 0
-205 -137 0
-149 -143 0
-150 -144 0
-152 -145 0
-159 -143 0
-160 -144 0
-169 -143 0
-170 -144 0
-172 -145 0
-178 -143 0
-179 -144 0
-182 -145 0
-191 -143 0
-192 -144 0
-195 -145 0
-204 -143 0
-205 -144 0
-159 -149 0
-160 -150 0
-169 -149 0
-170 -150 0
-172 -152 0
-178 -149 0
-179 -150 0
-182 -152 0
-185 -154 0
-191 -149 0
-192 -150 0
-195 -152 0
-198 -154 0
-204 -149 0
-205 -150 0
-169 -159 0
-170 -160 0
-178 -159 0
-179 -160 0
-191 -159 0
-192 -160 0
-204 -159 0
-205 -160 0
-178 -169 0
-179 -170 0
-182 -172 0
-191 -169 0
-192 -170 0
-195 -172 0
-204 -169 0
-205 -170 0
-191 -178 0
-192 -179 0
-195 -182 0
-198 -185 0
-204 -178 0
-205 -179 0
-204 -191 0
-205 -192 0
-208 -206 0
-208 -207 0
-207 -206 0
-215 -213 0
-215 -214 0
-214 -213 0
-225 -221 0
-225 -223 0
-223 -221 0
27 29 32 35 38 40 43 46 48 51 54 57 59 62 65 68 71 74 206 0
-208 28 30 33 36 39 41 44 47 49 52 55 58 60 63 66 69 72 75 213 0
-215 31 34 37 42 45 50 53 56 61 64 67 70 73 76 221 0
-206 28 30 33 36 39 41 44 47 49 52 55 58 60 63 66 69 72 75 214 0
-213 31 34 37 42 45 50 53 56 61 64 67 70 73 76 223 0
-29 208 0
-32 208 0
-35 208 0
-38 208 0
-40 208 0
-43 208 0
-46 208 0
-48 208 0
-51 208 0
-54 208 0
-57 208 0
-59 208 0
-62 208 0
-65 208 0
-68 208 0
-71 208 0
-74 208 0
-27 208 0
-208 -30 215 0
-208 -33 215 0
-208 -36 215 0
-208 -39 215 0
-208 -41 215 0
-208 -44 215 0
-208 -47 215 0
-208 -49 215 0
-208 -52 215 0
-208 -55 215 0
-208 -58 215 0
-208 -60 215 0
-208 -63 215 0
-208 -66 215 0
-208 -69 215 0
-208 -72 215 0
-208 -75 215 0
-208 -28 215 0
-215 -31 225 0
-215 -34 225 0
-215 -37 225 0
-215 -42 225 0
-215 -45 225 0
-215 -50 225 0
-215 -53 225 0
-215 -56 225 0
-215 -61 225 0
-215 -64 225 0
-215 -67 225 0
-215 -70 225 0
-215 -73 225 0
-215 -76 225 0
-206 -30 213 0
-206 -33 213 0
-206 -36 213 0
-206 -39 213 0
-206 -41 213 0
-206 -44 213 0
-206 -47 213 0
-206 -49 213 0
-206 -52 213 0
-206 -55 213 0
-206 -58 213 0
-206 -60 213 0
-206 -63 213 0
-206 -66 213 0
-206 -69 213 0
-206 -72 213 0
-206 -75 213 0
-206 -28 213 0
-213 -31 221 0
-213 -34 221 0
-213 -37 221 0
-213 -42 221 0
-213 -45 221 0
-213 -50 221 0
-213 -53 221 0
-213 -56 221 0
-213 -61 221 0
-213 -64 221 0
-213 -67 221 0
-213 -70 221 0
-213 -73 221 0
-213 -76 221 0
-207 -30 214 0
-207 -33 214 0
-207 -36 214 0
-207 -39 214 0
-207 -41 214 0
-207 -44 214 0
-207 -47 214 0
-207 -49 214 0
-207 -52 214 0
-207 -55 214 0
-207 -58 214 0
-207 -60 214 0
-207 -63 214 0
-207 -66 214 0
-207 -69 214 0
-207 -72 214 0
-207 -75 214 0
-207 -28 214 0
-214 -31 223 0
-214 -34 223 0
-214 -37 223 0
-214 -42 223 0
-214 -45 223 0
-214 -50 223 0
-214 -53 223 0
-214 -56 223 0
-214 -61 223 0
-214 -64 223 0
-214 -67 223 0
-214 -70 223 0
-214 -73 223 0
-214 -76 223 0
-27 82 0
-27 81 82 0
-27 80 82 0
-27 80 81 82 0
-27 210 0
-27 193 0
-27 162 0
-210 -193 -162 -82 27 0
-28 206 207 208 0
-28 82 206 207 0
-28 81 206 208 0
-28 81 82 206 0
-28 80 207 208 0
-28 80 82 207 0
-28 80 81 208 0
-28 80 81 82 0
-28 217 0
-28 196 0
-28 164 0
-217 -206 -196 -164 -80 28 0
-217 -207 -196 -164 -81 28 0
-217 -208 -196 -164 -82 28 0
-29 87 0
-29 86 87 0
-29 85 87 0
-29 85 86 87 0
-29 151 0
-29 209 0
-29 193 0
-209 -193 -151 -87 29 0
-30 206 207 208 0
-30 87 206 207 0
-30 86 206 208 0
-30 86 87 206 0
-30 85 207 208 0
-30 85 87 207 0
-30 85 86 208 0
-30 85 86 87 0
-30 153 0
-30 216 0
-30 196 0
-216 -206 -196 -153 -85 30 0
-216 -207 -196 -153 -86 30 0
-216 -208 -196 -153 -87 30 0
-31 213 214 215 0
-31 87 213 214 0
-31 86 213 215 0
-31 86 87 213 0
-31 85 214 215 0
-31 85 87 214 0
-31 85 86 215 0
-31 85 86 87 0
-31 158 0
-31 226 0
-31 202 0
-226 -213 -202 -158 -85 31 0
-226 -214 -202 -158 -86 31 0
-226 -215 -202 -158 -87 31 0
-32 93 0
-32 92 93 0
-32 91 93 0
-32 91 92 93 0
-32 193 0
-32 181 0
-32 210 0
-210 -193 -181 -93 32 0
-33 206 207 208 0
-33 93 206 207 0
-33 92 206 208 0
-33 92 93 206 0
-33 91 207 208 0
-33 91 93 207 0
-33 91 92 208 0
-33 91 92 93 0
-33 196 0
-33 184 0
-33 217 0
-217 -206 -196 -184 -91 33 0
-217 -207 -196 -184 -92 33 0
-217 -208 -196 -184 -93 33 0
-34 213 214 215 0
-34 93 213 214 0
-34 92 213 215 0
-34 92 93 213 0
-34 91 214 215 0
-34 91 93 214 0
-34 91 92 215 0
-34 91 92 93 0
-34 202 0
-34 190 0
-34 227 0
-227 -213 -202 -190 -91 34 0
-227 -214 -202 -190 -92 34 0
-227 -215 -202 -190 -93 34 0
-35 100 0
-35 99 100 0
-35 98 100 0
-35 98 99 100 0
-35 209 0
-35 171 0
-35 210 0
-210 -209 -171 -100 35 0
-36 206 207 208 0
-36 100 206 207 0
-36 99 206 208 0
-36 99 100 206 0
-36 98 207 208 0
-36 98 100 207 0
-36 98 99 208 0
-36 98 99 100 0
-36 216 0
-36 173 0
-36 217 0
-217 -216 -206 -173 -98 36 0
-217 -216 -207 -173 -99 36 0
-217 -216 -208 -173 -100 36 0
-37 213 214 215 0
-37 100 213 214 0
-37 99 213 215 0
-37 99 100 213 0
-37 98 214 215 0
-37 98 100 214 0
-37 98 99 215 0
-37 98 99 100 0
-37 226 0
-37 177 0
-37 227 0
-227 -226 -213 -177 -98 37 0
-227 -226 -214 -177 -99 37 0
-227 -226 -215 -177 -100 37 0
-38 106 0
-38 105 106 0
-38 104 106 0
-38 104 105 106 0
-38 209 0
-38 212 0
-38 193 0
-212 -209 -193 -106 38 0
-39 206 207 208 0
-39 106 206 207 0
-39 105 206 208 0
-39 105 106 206 0
-39 104 207 208 0
-39 104 106 207 0
-39 104 105 208 0
-39 104 105 106 0
-39 216 0
-39 219 0
-39 196 0
-219 -216 -206 -196 -104 39 0
-219 -216 -207 -196 -105 39 0
-219 -216 -208 -196 -106 39 0
-40 111 0
-40 110 111 0
-40 109 111 0
-40 109 110 111 0
-40 209 0
-40 194 0
-40 210 0
-210 -209 -194 -111 40 0
-41 206 207 208 0
-41 111 206 207 0
-41 110 206 208 0
-41 110 111 206 0
-41 109 207 208 0
-41 109 111 207 0
-41 109 110 208 0
-41 109 110 111 0
-41 216 0
-41 197 0
-41 217 0
-217 -216 -206 -197 -109 41 0
-217 -216 -207 -197 -110 41 0
-217 -216 -208 -197 -111 41 0
-42 213 214 215 0
-42 111 213 214 0
-42 110 213 215 0
-42 110 111 213 0
-42 109 214 215 0
-42 109 111 214 0
-42 109 110 215 0
-42 109 110 111 0
-42 226 0
-42 203 0
-42 227 0
-227 -226 -213 -203 -109 42 0
-227 -226 -214 -203 -110 42 0
-227 -226 -215 -203 -111 42 0
-43 117 0
-43 116 117 0
-43 115 117 0
-43 115 116 117 0
-43 151 0
-43 193 0
-193 -151 -117 43 0
-44 206 207 208 0
-44 117 206 207 0
-44 116 206 208 0
-44 116 117 206 0
-44 115 207 208 0
-44 115 117 207 0
-44 115 116 208 0
-44 115 116 117 0
-44 153 0
-44 196 0
-206 -196 -153 -115 44 0
-207 -196 -153 -116 44 0
-208 -196 -153 -117 44 0
-45 213 214 215 0
-45 117 213 214 0
-45 116 213 215 0
-45 116 117 213 0
-45 115 214 215 0
-45 115 117 214 0
-45 115 116 215 0
-45 115 116 117 0
-45 158 0
-45 202 0
-213 -202 -158 -115 45 0
-214 -202 -158 -116 45 0
-215 -202 -158 -117 45 0
-46 123 0
-46 122 123 0
-46 121 123 0
-46 121 122 123 0
-46 193 0
-46 162 0
-193 -162 -123 46 0
-47 206 207 208 0
-47 123 206 207 0
-47 122 206 208 0
-47 122 123 206 0
-47 121 207 208 0
-47 121 123 207 0
-47 121 122 208 0
-47 121 122 123 0
-47 196 0
-47 164 0
-206 -196 -164 -121 47 0
-207 -196 -164 -122 47 0
-208 -196 -164 -123 47 0
-48 129 0
-48 128 129 0
-48 127 129 0
-48 127 128 129 0
-48 171 0
-48 210 0
-210 -171 -129 48 0
-49 206 207 208 0
-49 129 206 207 0
-49 128 206 208 0
-49 128 129 206 0
-49 127 207 208 0
-49 127 129 207 0
-49 127 128 208 0
-49 127 128 129 0
-49 173 0
-49 217 0
-217 -206 -173 -127 49 0
-217 -207 -173 -128 49 0
-217 -208 -173 -129 49 0
-50 213 214 215 0
-50 129 213 214 0
-50 128 213 215 0
-50 128 129 213 0
-50 127 214 215 0
-50 127 129 214 0
-50 127 128 215 0
-50 127 128 129 0
-50 177 0
-50 227 0
-227 -213 -177 -127 50 0
-227 -214 -177 -128 50 0
-227 -215 -177 -129 50 0
-51 135 0
-51 134 135 0
-51 133 135 0
-51 133 134 135 0
-51 181 0
-51 210 0
-210 -181 -135 51 0
-52 206 207 208 0
-52 135 206 207 0
-52 134 206 208 0
-52 134 135 206 0
-52 133 207 208 0
-52 133 135 207 0
-52 133 134 208 0
-52 133 134 135 0
-52 184 0
-52 217 0
-217 -206 -184 -133 52 0
-217 -207 -184 -134 52 0
-217 -208 -184 -135 52 0
-53 213 214 215 0
-53 135 213 214 0
-53 134 213 215 0
-53 134 135 213 0
-53 133 214 215 0
-53 133 135 214 0
-53 133 134 215 0
-53 133 134 135 0
-53 190 0
-53 227 0
-227 -213 -190 -133 53 0
-227 -214 -190 -134 53 0
-227 -215 -190 -135 53 0
-54 142 0
-54 141 142 0
-54 140 142 0
-54 140 141 142 0
-54 194 0
-54 209 0
-209 -194 -142 54 0
-55 206 207 208 0
-55 142 206 207 0
-55 141 206 208 0
-55 141 142 206 0
-55 140 207 208 0
-55 140 142 207 0
-55 140 141 208 0
-55 140 141 142 0
-55 197 0
-55 216 0
-216 -206 -197 -140 55 0
-216 -207 -197 -141 55 0
-216 -208 -197 -142 55 0
-56 213 214 215 0
-56 142 213 214 0
-56 141 213 215 0
-56 141 142 213 0
-56 140 214 215 0
-56 140 142 214 0
-56 140 141 215 0
-56 140 141 142 0
-56 203 0
-56 226 0
-226 -213 -203 -140 56 0
-226 -214 -203 -141 56 0
-226 -215 -203 -142 56 0
-57 148 0
-57 147 148 0
-57 146 148 0
-57 146 147 148 0
-57 212 0
-57 209 0
-212 -209 -148 57 0
-58 206 207 208 0
-58 148 206 207 0
-58 147 206 208 0
-58 147 148 206 0
-58 146 207 208 0
-58 146 148 207 0
-58 146 147 208 0
-58 146 147 148 0
-58 219 0
-58 216 0
-219 -216 -206 -146 58 0
-219 -216 -207 -147 58 0
-219 -216 -208 -148 58 0
-59 157 0
-59 156 157 0
-59 155 157 0
-59 155 156 157 0
-59 193 0
-59 161 0
-59 210 0
-210 -193 -161 -157 59 0
-60 206 207 208 0
-60 157 206 207 0
-60 156 206 208 0
-60 156 157 206 0
-60 155 207 208 0
-60 155 157 207 0
-60 155 156 208 0
-60 155 156 157 0
-60 196 0
-60 163 0
-60 217 0
-217 -206 -196 -163 -155 60 0
-217 -207 -196 -163 -156 60 0
-217 -208 -196 -163 -157 60 0
-61 213 214 215 0
-61 157 213 214 0
-61 156 213 215 0
-61 156 157 213 0
-61 155 214 215 0
-61 155 157 214 0
-61 155 156 215 0
-61 155 156 157 0
-61 202 0
-61 168 0
-61 227 0
-227 -213 -202 -168 -155 61 0
-227 -214 -202 -168 -156 61 0
-227 -215 -202 -168 -157 61 0
-62 167 0
-62 166 167 0
-62 165 167 0
-62 165 166 167 0
-62 209 0
-62 161 0
-62 193 0
-209 -193 -167 -161 62 0
-63 206 207 208 0
-63 167 206 207 0
-63 166 206 208 0
-63 166 167 206 0
-63 165 207 208 0
-63 165 167 207 0
-63 165 166 208 0
-63 165 166 167 0
-63 216 0
-63 163 0
-63 196 0
-216 -206 -196 -165 -163 63 0
-216 -207 -196 -166 -163 63 0
-216 -208 -196 -167 -163 63 0
-64 213 214 215 0
-64 167 213 214 0
-64 166 213 215 0
-64 166 167 213 0
-64 165 214 215 0
-64 165 167 214 0
-64 165 166 215 0
-64 165 166 167 0
-64 226 0
-64 168 0
-64 202 0
-226 -213 -202 -168 -165 64 0
-226 -214 -202 -168 -166 64 0
-226 -215 -202 -168 -167 64 0
-65 176 0
-65 175 176 0
-65 174 176 0
-65 174 175 176 0
-65 193 0
-65 180 0
-65 210 0
-210 -193 -180 -176 65 0
-66 206 207 208 0
-66 176 206 207 0
-66 175 206 208 0
-66 175 176 206 0
-66 174 207 208 0
-66 174 176 207 0
-66 174 175 208 0
-66 174 175 176 0
-66 196 0
-66 183 0
-66 217 0
-217 -206 -196 -183 -174 66 0
-217 -207 -196 -183 -175 66 0
-217 -208 -196 -183 -176 66 0
-67 213 214 215 0
-67 176 213 214 0
-67 175 213 215 0
-67 175 176 213 0
-67 174 214 215 0
-67 174 176 214 0
-67 174 175 215 0
-67 174 175 176 0
-67 202 0
-67 189 0
-67 227 0
-227 -213 -202 -189 -174 67 0
-227 -214 -202 -189 -175 67 0
-227 -215 -202 -189 -176 67 0
-68 188 0
-68 187 188 0
-68 186 188 0
-68 186 187 188 0
-68 209 0
-68 180 0
-68 210 0
-210 -209 -188 -180 68 0
-69 206 207 208 0
-69 188 206 207 0
-69 187 206 208 0
-69 187 188 206 0
-69 186 207 208 0
-69 186 188 207 0
-69 186 187 208 0
-69 186 187 188 0
-69 216 0
-69 183 0
-69 217 0
-217 -216 -206 -186 -183 69 0
-217 -216 -207 -187 -183 69 0
-217 -216 -208 -188 -183 69 0
-70 213 214 215 0
-70 188 213 214 0
-70 187 213 215 0
-70 187 188 213 0
-70 186 214 215 0
-70 186 188 214 0
-70 186 187 215 0
-70 186 187 188 0
-70 226 0
-70 189 0
-70 227 0
-227 -226 -213 -189 -186 70 0
-227 -226 -214 -189 -187 70 0
-227 -226 -215 -189 -188 70 0
-71 201 0
-71 200 201 0
-71 199 201 0
-71 199 200 201 0
-71 209 0
-71 211 0
-71 193 0
-211 -209 -201 -193 71 0
-72 206 207 208 0
-72 201 206 207 0
-72 200 206 208 0
-72 200 201 206 0
-72 199 207 208 0
-72 199 201 207 0
-72 199 200 208 0
-72 199 200 201 0
-72 216 0
-72 218 0
-72 196 0
-218 -216 -206 -199 -196 72 0
-218 -216 -207 -200 -196 72 0
-218 -216 -208 -201 -196 72 0
-73 213 214 215 0
-73 201 213 214 0
-73 200 213 215 0
-73 200 201 213 0
-73 199 214 215 0
-73 199 201 214 0
-73 199 200 215 0
-73 199 200 201 0
-73 226 0
-73 228 0
-73 202 0
-228 -226 -213 -202 -199 73 0
-228 -226 -214 -202 -200 73 0
-228 -226 -215 -202 -201 73 0
-74 224 0
-74 222 224 0
-74 220 224 0
-74 220 222 224 0
-74 209 0
-74 211 0
-74 210 0
-224 -211 -210 -209 74 0
-75 206 207 208 0
-75 206 207 224 0
-75 206 208 222 0
-75 206 222 224 0
-75 207 208 220 0
-75 207 220 224 0
-75 208 220 222 0
-75 220 222 224 0
-75 216 0
-75 218 0
-75 217 0
-220 -218 -217 -216 -206 75 0
-222 -218 -217 -216 -207 75 0
-224 -218 -217 -216 -208 75 0
-76 213 214 215 0
-76 213 214 224 0
-76 213 215 222 0
-76 213 222 224 0
-76 214 215 220 0
-76 214 220 224 0
-76 215 220 222 0
-76 220 222 224 0
-76 226 0
-76 228 0
-76 227 0
-228 -227 -226 -220 -213 76 0
-228 -227 -226 -222 -214 76 0
-228 -227 -226 -224 -215 76 0
-243 -235 -231 -82 77 0
-210 -208 -193 -162 -82 78 0
-210 -206 -193 -162 -80 78 0
-210 -207 -193 -162 -81 78 0
-217 -215 -196 -164 -82 79 0
-217 -213 -196 -164 -80 79 0
-217 -214 -196 -164 -81 79 0
-243 -242 -233 -87 83 0
-209 -208 -193 -151 -87 84 0
-209 -206 -193 -151 -85 84 0
-209 -207 -193 -151 -86 84 0
-216 -215 -196 -153 -87 0
-216 -213 -196 -153 -85 0
-216 -214 -196 -153 -86 0
-226 -225 -202 -158 -87 0
-226 -221 -202 -158 -85 0
-226 -223 -202 -158 -86 0
-243 -241 -235 -93 88 0
-210 -208 -193 -181 -93 89 0
-210 -206 -193 -181 -91 89 0
-210 -207 -193 -181 -92 89 0
-217 -215 -196 -184 -93 90 0
-217 -213 -196 -184 -91 90 0
-217 -214 -196 -184 -92 90 0
-227 -225 -202 -190 -93 0
-227 -221 -202 -190 -91 0
-227 -223 -202 -190 -92 0
-235 -233 -230 -100 94 0
-210 -209 -208 -171 -100 95 0
-210 -209 -206 -171 -98 95 0
-210 -209 -207 -171 -99 95 0
-217 -216 -215 -173 -100 96 0
-217 -216 -213 -173 -98 96 0
-217 -216 -214 -173 -99 96 0
-227 -226 -225 -177 -100 97 0
-227 -226 -221 -177 -98 97 0
-227 -226 -223 -177 -99 97 0
-243 -233 -229 -106 101 0
-212 -209 -208 -193 -106 102 0
-212 -209 -206 -193 -104 102 0
-212 -209 -207 -193 -105 102 0
-219 -216 -215 -196 -106 103 0
-219 -216 -213 -196 -104 103 0
-219 -216 -214 -196 -105 103 0
-235 -233 -232 -111 107 0
-210 -209 -208 -194 -111 108 0
-210 -209 -206 -194 -109 108 0
-210 -209 -207 -194 -110 108 0
-217 -216 -215 -197 -111 0
-217 -216 -213 -197 -109 0
-217 -216 -214 -197 -110 0
-227 -226 -225 -203 -111 0
-227 -226 -221 -203 -109 0
-227 -226 -223 -203 -110 0
-243 -242 -117 112 0
-208 -193 -151 -117 113 0
-206 -193 -151 -115 113 0
-207 -193 -151 -116 113 0
-215 -196 -153 -117 114 0
-213 -196 -153 -115 114 0
-214 -196 -153 -116 114 0
-225 -202 -158 -117 0
-221 -202 -158 -115 0
-223 -202 -158 -116 0
-243 -231 -123 118 0
-208 -193 -162 -123 119 0
-206 -193 -162 -121 119 0
-207 -193 -162 -122 119 0
-215 -196 -164 -123 120 0
-213 -196 -164 -121 120 0
-214 -196 -164 -122 120 0
-235 -230 -129 124 0
-210 -208 -171 -129 125 0
-210 -206 -171 -127 125 0
-210 -207 -171 -128 125 0
-217 -215 -173 -129 126 0
-217 -213 -173 -127 126 0
-217 -214 -173 -128 126 0
-227 -225 -177 -129 0
-227 -221 -177 -127 0
-227 -223 -177 -128 0
-241 -235 -135 130 0
-210 -208 -181 -135 131 0
-210 -206 -181 -133 131 0
-210 -207 -181 -134 131 0
-217 -215 -184 -135 132 0
-217 -213 -184 -133 132 0
-217 -214 -184 -134 132 0
-227 -225 -190 -135 0
-227 -221 -190 -133 0
-227 -223 -190 -134 0
-233 -232 -142 136 0
-209 -208 -194 -142 137 0
-209 -206 -194 -140 137 0
-209 -207 -194 -141 137 0
-216 -215 -197 -142 138 0
-216 -213 -197 -140 138 0
-216 -214 -197 -141 138 0
-226 -225 -203 -142 139 0
-226 -221 -203 -140 139 0
-226 -223 -203 -141 139 0
-233 -229 -148 143 0
-212 -209 -208 -148 144 0
-212 -209 -206 -146 144 0
-212 -209 -207 -147 144 0
-219 -216 -215 -148 145 0
-219 -216 -213 -146 145 0
-219 -216 -214 -147 145 0
-243 -236 -235 -157 149 0
-210 -208 -193 -161 -157 150 0
-210 -206 -193 -161 -155 150 0
-210 -207 -193 -161 -156 150 0
-217 -215 -196 -163 -157 152 0
-217 -213 -196 -163 -155 152 0
-217 -214 -196 -163 -156 152 0
-227 -225 -202 -168 -157 154 0
-227 -221 -202 -168 -155 154 0
-227 -223 -202 -168 -156 154 0
-243 -236 -233 -167 159 0
-209 -208 -193 -167 -161 160 0
-209 -206 -193 -165 -161 160 0
-209 -207 -193 -166 -161 160 0
-216 -215 -196 -167 -163 0
-216 -213 -196 -165 -163 0
-216 -214 -196 -166 -163 0
-226 -225 -202 -168 -167 0
-226 -221 -202 -168 -165 0
-226 -223 -202 -168 -166 0
-243 -235 -234 -176 169 0
-210 -208 -193 -180 -176 170 0
-210 -206 -193 -180 -174 170 0
-210 -207 -193 -180 -175 170 0
-217 -215 -196 -183 -176 172 0
-217 -213 -196 -183 -174 172 0
-217 -214 -196 -183 -175 172 0
-227 -225 -202 -189 -176 0
-227 -221 -202 -189 -174 0
-227 -223 -202 -189 -175 0
-235 -234 -233 -188 178 0
-210 -209 -208 -188 -180 179 0
-210 -209 -206 -186 -180 179 0
-210 -209 -207 -187 -180 179 0
-217 -216 -215 -188 -183 182 0
-217 -216 -213 -186 -183 182 0
-217 -216 -214 -187 -183 182 0
-227 -226 -225 -189 -188 185 0
-227 -226 -221 -189 -186 185 0
-227 -226 -223 -189 -187 185 0
-244 -243 -233 -201 191 0
-211 -209 -208 -201 -193 192 0
-211 -209 -206 -199 -193 192 0
-211 -209 -207 -200 -193 192 0
-218 -216 -215 -201 -196 195 0
-218 -216 -213 -199 -196 195 0
-218 -216 -214 -200 -196 195 0
-228 -226 -225 -202 -201 198 0
-228 -226 -221 -202 -199 198 0
-228 -226 -223 -202 -200 198 0
-244 -235 -233 -224 204 0
-224 -211 -210 -209 -208 205 0
-220 -211 -210 -209 -206 205 0
-222 -211 -210 -209 -207 205 0
-224 -218 -217 -216 -215 0
-220 -218 -217 -216 -213 0
-222 -218 -217 -216 -214 0
-228 -227 -226 -225 -224 0
-228 -227 -226 -221 -220 0
-228 -227 -226 -223 -222 0
-77 80 81 82 0
-77 80 82 0
-77 81 82 0
-77 82 0
-78 80 81 82 0
-78 80 81 208 0
-78 80 82 207 0
-78 80 207 208 0
-78 81 82 206 0
-78 81 206 208 0
-78 82 206 207 0
-78 206 207 208 0
-79 80 81 82 0
-79 80 81 215 0
-79 80 82 214 0
-79 80 214 215 0
-79 81 82 213 0
-79 81 213 215 0
-79 82 213 214 0
-79 213 214 215 0
-83 85 86 87 0
-83 85 87 0
-83 86 87 0
-83 87 0
-84 85 86 87 0
-84 85 86 208 0
-84 85 87 207 0
-84 85 207 208 0
-84 86 87 206 0
-84 86 206 208 0
-84 87 206 207 0
-84 206 207 208 0
-88 91 92 93 0
-88 91 93 0
-88 92 93 0
-88 93 0
-89 91 92 93 0
-89 91 92 208 0
-89 91 93 207 0
-89 91 207 208 0
-89 92 93 206 0
-89 92 206 208 0
-89 93 206 207 0
-89 206 207 208 0
-90 91 92 93 0
-90 91 92 215 0
-90 91 93 214 0
-90 91 214 215 0
-90 92 93 213 0
-90 92 213 215 0
-90 93 213 214 0
-90 213 214 215 0
-94 98 99 100 0
-94 98 100 0
-94 99 100 0
-94 100 0
-95 98 99 100 0
-95 98 99 208 0
-95 98 100 207 0
-95 98 207 208 0
-95 99 100 206 0
-95 99 206 208 0
-95 100 206 207 0
-95 206 207 208 0
-96 98 99 100 0
-96 98 99 215 0
-96 98 100 214 0
-96 98 214 215 0
-96 99 100 213 0
-96 99 213 215 0
-96 100 213 214 0
-96 213 214 215 0
-97 98 99 100 0
-97 98 99 225 0
-97 98 100 223 0
-97 98 223 225 0
-97 99 100 221 0
-97 99 221 225 0
-97 100 221 223 0
-97 221 223 225 0
-101 104 105 106 0
-101 104 106 0
-101 105 106 0
-101 106 0
-102 104 105 106 0
-102 104 105 208 0
-102 104 106 207 0
-102 104 207 208 0
-102 105 106 206 0
-102 105 206 208 0
-102 106 206 207 0
-102 206 207 208 0
-103 104 105 106 0
-103 104 105 215 0
-103 104 106 214 0
-103 104 214 215 0
-103 105 106 213 0
-103 105 213 215 0
-103 106 213 214 0
-103 213 214 215 0
-107 109 110 111 0
-107 109 111 0
-107 110 111 0
-107 111 0
-108 109 110 111 0
-108 109 110 208 0
-108 109 111 207 0
-108 109 207 208 0
-108 110 111 206 0
-108 110 206 208 0
-108 111 206 207 0
-108 206 207 208 0
-112 115 116 117 0
-112 115 117 0
-112 116 117 0
-112 117 0
-113 115 116 117 0
-113 115 116 208 0
-113 115 117 207 0
-113 115 207 208 0
-113 116 117 206 0
-113 116 206 208 0
-113 117 206 207 0
-113 206 207 208 0
-114 115 116 117 0
-114 115 116 215 0
-114 115 117 214 0
-114 115 214 215 0
-114 116 117 213 0
-114 116 213 215 0
-114 117 213 214 0
-114 213 214 215 0
-118 121 122 123 0
-118 121 123 0
-118 122 123 0
-118 123 0
-119 121 122 123 0
-119 121 122 208 0
-119 121 123 207 0
-119 121 207 208 0
-119 122 123 206 0
-119 122 206 208 0
-119 123 206 207 0
-119 206 207 208 0
-120 121 122 123 0
-120 121 122 215 0
-120 121 123 214 0
-120 121 214 215 0
-120 122 123 213 0
-120 122 213 215 0
-120 123 213 214 0
-120 213 214 215 0
-124 127 128 129 0
-124 127 129 0
-124 128 129 0
-124 129 0
-125 127 128 129 0
-125 127 128 208 0
-125 127 129 207 0
-125 127 207 208 0
-125 128 129 206 0
-125 128 206 208 0
-125 129 206 207 0
-125 206 207 208 0
-126 127 128 129 0
-126 127 128 215 0
-126 127 129 214 0
-126 127 214 215 0
-126 128 129 213 0
-126 128 213 215 0
-126 129 213 214 0
-126 213 214 215 0
-130 133 134 135 0
-130 133 135 0
-130 134 135 0
-130 135 0
-131 133 134 135 0
-131 133 134 208 0
-131 133 135 207 0
-131 133 207 208 0
-131 134 135 206 0
-131 134 206 208 0
-131 135 206 207 0
-131 206 207 208 0
-132 133 134 135 0
-132 133 134 215 0
-132 133 135 214 0
-132 133 214 215 0
-132 134 135 213 0
-132 134 213 215 0
-132 135 213 214 0
-132 213 214 215 0
-136 140 141 142 0
-136 140 142 0
-136 141 142 0
-136 142 0
-137 140 141 142 0
-137 140 141 208 0
-137 140 142 207 0
-137 140 207 208 0
-137 141 142 206 0
-137 141 206 208 0
-137 142 206 207 0
-137 206 207 208 0
-138 140 141 142 0
-138 140 141 215 0
-138 140 142 214 0
-138 140 214 215 0
-138 141 142 213 0
-138 141 213 215 0
-138 142 213 214 0
-138 213 214 215 0
-139 140 141 142 0
-139 140 141 225 0
-139 140 142 223 0
-139 140 223 225 0
-139 141 142 221 0
-139 141 221 225 0
-139 142 221 223 0
-139 221 223 225 0
-143 146 147 148 0
-143 146 148 0
-143 147 148 0
-143 148 0
-144 146 147 148 0
-144 146 147 208 0
-144 146 148 207 0
-144 146 207 208 0
-144 147 148 206 0
-144 147 206 208 0
-144 148 206 207 0
-144 206 207 208 0
-145 146 147 148 0
-145 146 147 215 0
-145 146 148 214 0
-145 146 214 215 0
-145 147 148 213 0
-145 147 213 215 0
-145 148 213 214 0
-145 213 214 215 0
-149 155 156 157 0
-149 155 157 0
-149 156 157 0
-149 157 0
-150 155 156 157 0
-150 155 156 208 0
-150 155 157 207 0
-150 155 207 208 0
-150 156 157 206 0
-150 156 206 208 0
-150 157 206 207 0
-150 206 207 208 0
-152 155 156 157 0
-152 155 156 215 0
-152 155 157 214 0
-152 155 214 215 0
-152 156 157 213 0
-152 156 213 215 0
-152 157 213 214 0
-152 213 214 215 0
-154 155 156 157 0
-154 155 156 225 0
-154 155 157 223 0
-154 155 223 225 0
-154 156 157 221 0
-154 156 221 225 0
-154 157 221 223 0
-154 221 223 225 0
-159 165 166 167 0
-159 165 167 0
-159 166 167 0
-159 167 0
-160 165 166 167 0
-160 165 166 208 0
-160 165 167 207 0
-160 165 207 208 0
-160 166 167 206 0
-160 166 206 208 0
-160 167 206 207 0
-160 206 207 208 0
-169 174 175 176 0
-169 174 176 0
-169 175 176 0
-169 176 0
-170 174 175 176 0
-170 174 175 208 0
-170 174 176 207 0
-170 174 207 208 0
-170 175 176 206 0
-170 175 206 208 0
-170 176 206 207 0
-170 206 207 208 0
-172 174 175 176 0
-172 174 175 215 0
-172 174 176 214 0
-172 174 214 215 0
-172 175 176 213 0
-172 175 213 215 0
-172 176 213 214 0
-172 213 214 215 0
-178 186 187 188 0
-178 186 188 0
-178 187 188 0
-178 188 0
-179 186 187 188 0
-179 186 187 208 0
-179 186 188 207 0
-179 186 207 208 0
-179 187 188 206 0
-179 187 206 208 0
-179 188 206 207 0
-179 206 207 208 0
-182 186 187 188 0
-182 186 187 215 0
-182 186 188 214 0
-182 186 214 215 0
-182 187 188 213 0
-182 187 213 215 0
-182 188 213 214 0
-182 213 214 215 0
-185 186 187 188 0
-185 186 187 225 0
-185 186 188 223 0
-185 186 223 225 0
-185 187 188 221 0
-185 187 221 225 0
-185 188 221 223 0
-185 221 223 225 0
-191 199 200 201 0
-191 199 201 0
-191 200 201 0
-191 201 0
-192 199 200 201 0
-192 199 200 208 0
-192 199 201 207 0
-192 199 207 208 0
-192 200 201 206 0
-192 200 206 208 0
-192 201 206 207 0
-192 206 207 208 0
-195 199 200 201 0
-195 199 200 215 0
-195 199 201 214 0
-195 199 214 215 0
-195 200 201 213 0
-195 200 213 215 0
-195 201 213 214 0
-195 213 214 215 0
-198 199 200 201 0
-198 199 200 225 0
-198 199 201 223 0
-198 199 223 225 0
-198 200 201 221 0
-198 200 221 225 0
-198 201 221 223 0
-198 221 223 225 0
-204 220 222 224 0
-204 220 224 0
-204 222 224 0
-204 224 0
-205 220 222 224 0
-205 208 220 222 0
-205 207 220 224 0
-205 207 208 220 0
-205 206 222 224 0
-205 206 208 222 0
-205 206 207 224 0
-205 206 207 208 0
